#pLT is two-dimensional [i,r]=[component, individual]
#[i,*] means all data in row i.

param pLT := 
[1,*]
1  0    2  8    3  7    4  2    5  6    6  4    

[2,*]
1  3    2  5    3  1    4  5    5  3    6  3    
;